c description: Random 3-CNF over 15 variables and 75 clauses
p cnf 15 75
8 -11 13 0
5 14 -15 0
4 -11 15 0
2 4 8 0
-8 -12 -14 0
-6 -8 -14 0
4 10 15 0
5 8 9 0
-4 -7 11 0
-1 -5 -15 0
6 8 14 0
2 -10 -13 0
-5 -9 14 0
-5 -10 -13 0
-1 4 -7 0
3 -13 -14 0
6 12 14 0
6 7 -15 0
-4 -9 -15 0
-4 -9 -11 0
-2 4 10 0
-5 7 -12 0
-3 -11 12 0
1 4 -15 0
-4 5 -7 0
-2 -7 -14 0
-3 11 15 0
-2 -6 -15 0
-3 -6 7 0
-2 6 -13 0
-10 12 -13 0
8 12 -15 0
-4 5 -13 0
-6 -9 -13 0
4 -9 -15 0
2 3 15 0
-6 -10 11 0
-7 -11 -12 0
1 -4 8 0
7 -9 -11 0
-1 -3 -11 0
-4 -5 -14 0
9 10 12 0
-3 8 9 0
4 5 -8 0
3 8 15 0
4 8 12 0
-3 8 -9 0
6 13 -15 0
-1 7 12 0
5 7 9 0
-7 -13 15 0
-7 -11 -14 0
-3 -10 -12 0
1 -8 15 0
5 7 -13 0
-6 -8 -10 0
-10 11 12 0
-1 2 -15 0
-4 -5 10 0
-3 5 6 0
-1 5 -15 0
-3 4 8 0
2 4 -6 0
2 -3 -13 0
-1 10 -15 0
-2 -11 -12 0
-5 -7 -10 0
3 -4 -7 0
2 -8 -15 0
2 4 10 0
1 -7 -9 0
-8 -9 -14 0
1 13 15 0
-6 11 -14 0